2025-12-04 14:05:32,633 - INFO - [Scaling] length 1197 → 1105
2025-12-04 14:05:32,803 - INFO - 🧮 参数显存统计（单位：MB）
2025-12-04 14:05:32,804 - INFO - [参数显存] euclidean 总计: 1.1822 MB
2025-12-04 14:05:32,804 - INFO - [参数显存] euclidean 长度=110: 0.0327 MB
2025-12-04 14:05:32,804 - INFO - [参数显存] euclidean 长度=220: 0.0655 MB
2025-12-04 14:05:32,804 - INFO - [参数显存] euclidean 长度=331: 0.0985 MB
2025-12-04 14:05:32,804 - INFO - [参数显存] euclidean 长度=441: 0.1312 MB
2025-12-04 14:05:32,804 - INFO - [参数显存] euclidean 长度=552: 0.1642 MB
2025-12-04 14:05:32,804 - INFO - [参数显存] euclidean 长度=662: 0.1970 MB
2025-12-04 14:05:32,804 - INFO - [参数显存] euclidean 长度=773: 0.2300 MB
2025-12-04 14:05:32,804 - INFO - [参数显存] euclidean 长度=884: 0.2630 MB
2025-12-04 14:05:32,804 - INFO - [参数显存] cosine 总计: 1.1822 MB
2025-12-04 14:05:32,804 - INFO - [参数显存] cosine 长度=110: 0.0327 MB
2025-12-04 14:05:32,804 - INFO - [参数显存] cosine 长度=220: 0.0655 MB
2025-12-04 14:05:32,804 - INFO - [参数显存] cosine 长度=331: 0.0985 MB
2025-12-04 14:05:32,804 - INFO - [参数显存] cosine 长度=441: 0.1312 MB
2025-12-04 14:05:32,804 - INFO - [参数显存] cosine 长度=552: 0.1642 MB
2025-12-04 14:05:32,804 - INFO - [参数显存] cosine 长度=662: 0.1970 MB
2025-12-04 14:05:32,804 - INFO - [参数显存] cosine 长度=773: 0.2300 MB
2025-12-04 14:05:32,804 - INFO - [参数显存] cosine 长度=884: 0.2630 MB
2025-12-04 14:05:32,804 - INFO - [参数显存] 模型参数总量: 1,073,836，显存: 4.0964 MB
2025-12-04 14:05:33,350 - INFO - 📌 第一个 epoch：默认所有模块使用 checkpoint
2025-12-04 14:05:34,433 - INFO - Epoch 1 completed in 1.088225 seconds
2025-12-04 14:05:34,891 - INFO - torch.cuda.max_memory_reserved() : 6.359375
2025-12-04 14:05:34,891 - INFO - torch.cuda.max_memory_allocated() : 1.848137378692627
2025-12-04 14:05:35,406 - INFO - 
[🔁 拟合反向传播时间模型]
2025-12-04 14:05:35,406 - INFO - 总反向传播时间: 0.510471s
2025-12-04 14:05:35,406 - INFO - 拟合模型: backward_total ≈ 2 × (A + B) + b
2025-12-04 14:05:35,406 - INFO - A = 0.868486, B = 0.016118, b = -0.374133s
2025-12-04 14:05:35,427 - INFO - Set parameter LicenseID to value 2706656
2025-12-04 14:05:35,431 - INFO - Set parameter LogToConsole to value 1
2025-12-04 14:05:35,431 - INFO - Set parameter LogFile to value ""
2025-12-04 14:05:35,431 - INFO - Set parameter Threads to value 12
2025-12-04 14:05:35,431 - INFO - Set parameter TimeLimit to value 3600
2025-12-04 14:05:35,431 - INFO - Set parameter OptimalityTol to value 0.0001
2025-12-04 14:05:35,431 - INFO - Set parameter IntFeasTol to value 1e-05
2025-12-04 14:05:35,431 - INFO - Set parameter StartNodeLimit to value 10000000
2025-12-04 14:05:35,485 - INFO - Set parameter TimeLimit to value 3600
2025-12-04 14:05:35,485 - INFO - 
2025-12-04 14:05:35,485 - INFO - 
2025-12-04 14:05:35,485 - INFO - Restarting solve
2025-12-04 14:05:35,485 - INFO - 
2025-12-04 14:05:35,485 - INFO - 
2025-12-04 14:05:35,487 - INFO - Gurobi Optimizer version 12.0.3 build v12.0.3rc0 (linux64 - "Ubuntu 20.04.6 LTS")
2025-12-04 14:05:35,487 - INFO - 
2025-12-04 14:05:35,487 - INFO - CPU model: Intel(R) Xeon(R) Platinum 8260 CPU @ 2.40GHz, instruction set [SSE2|AVX|AVX2|AVX512]
2025-12-04 14:05:35,487 - INFO - Thread count: 48 physical cores, 96 logical processors, using up to 12 threads
2025-12-04 14:05:35,487 - INFO - 
2025-12-04 14:05:35,487 - INFO - Non-default parameters:
2025-12-04 14:05:35,487 - INFO - TimeLimit  3600
2025-12-04 14:05:35,487 - INFO - OptimalityTol  0.0001
2025-12-04 14:05:35,487 - INFO - StartNodeLimit  10000000
2025-12-04 14:05:35,487 - INFO - Threads  12
2025-12-04 14:05:35,487 - INFO - 
2025-12-04 14:05:35,487 - INFO - Optimize a model with 5603 rows, 3584 columns and 15200 nonzeros
2025-12-04 14:05:35,487 - INFO - Model fingerprint: 0x9c57742c
2025-12-04 14:05:35,488 - INFO - Variable types: 1024 continuous, 2560 integer (2560 binary)
2025-12-04 14:05:35,488 - INFO - Coefficient statistics:
2025-12-04 14:05:35,488 - INFO -   Matrix range     [1e+00, 2e+15]
2025-12-04 14:05:35,488 - INFO -   Objective range  [3e+04, 2e+06]
2025-12-04 14:05:35,488 - INFO -   Bounds range     [1e+00, 2e+16]
2025-12-04 14:05:35,488 - INFO -   RHS range        [1e+00, 2e+16]
2025-12-04 14:05:35,488 - INFO - Warning: Model contains large matrix coefficient range
2025-12-04 14:05:35,488 - INFO - Warning: Model contains large rhs
2025-12-04 14:05:35,488 - INFO - Warning: Model contains large bounds
2025-12-04 14:05:35,488 - INFO -          Consider reformulating model or setting NumericFocus parameter
2025-12-04 14:05:35,488 - INFO -          to avoid numerical issues.
2025-12-04 14:05:35,502 - INFO - Presolve removed 4283 rows and 1964 columns
2025-12-04 14:05:35,502 - INFO - Presolve time: 0.01s
2025-12-04 14:05:35,502 - INFO - Presolved: 1320 rows, 1620 columns, 4514 nonzeros
2025-12-04 14:05:35,503 - INFO - Variable types: 0 continuous, 1620 integer (1095 binary)
2025-12-04 14:05:35,515 - INFO - 
2025-12-04 14:05:35,515 - INFO - Root relaxation: objective 2.288689e+07, 405 iterations, 0.00 seconds (0.00 work units)
2025-12-04 14:05:35,518 - INFO - 
2025-12-04 14:05:35,518 - INFO -     Nodes    |    Current Node    |     Objective Bounds      |     Work
2025-12-04 14:05:35,518 - INFO -  Expl Unexpl |  Obj  Depth IntInf | Incumbent    BestBd   Gap | It/Node Time
2025-12-04 14:05:35,518 - INFO - 
2025-12-04 14:05:35,518 - INFO -      0     0 2.2887e+07    0    5          - 2.2887e+07      -     -    0s
2025-12-04 14:05:35,544 - INFO - H    0     0                    3.433034e+07 2.2887e+07  33.3%     -    0s
2025-12-04 14:05:35,545 - INFO - *    0     0               0    2.288689e+07 2.2887e+07  0.00%     -    0s
2025-12-04 14:05:35,546 - INFO - 
2025-12-04 14:05:35,546 - INFO - Cutting planes:
2025-12-04 14:05:35,546 - INFO -   Cover: 5
2025-12-04 14:05:35,546 - INFO - 
2025-12-04 14:05:35,546 - INFO - Explored 1 nodes (410 simplex iterations) in 0.06 seconds (0.03 work units)
2025-12-04 14:05:35,546 - INFO - Thread count was 12 (of 96 available processors)
2025-12-04 14:05:35,546 - INFO - 
2025-12-04 14:05:35,546 - INFO - Solution count 2: 2.28869e+07 3.43303e+07 
2025-12-04 14:05:35,546 - INFO - 
2025-12-04 14:05:35,546 - INFO - Optimal solution found (tolerance 1.00e-04)
2025-12-04 14:05:35,546 - INFO - Best objective 2.288689400000e+07, best bound 2.288689400000e+07, gap 0.0000%
2025-12-04 14:05:35,557 - INFO - 规划前的显存GB：18.0
2025-12-04 14:05:35,557 - INFO - 规划后的显存GB：13.761804103851318
2025-12-04 14:05:35,557 - INFO - 规划前的显存GB：18.0
2025-12-04 14:05:35,557 - INFO - 规划后的显存GB：5.638704441487789
2025-12-04 14:05:35,557 - INFO - ✅ 最优策略：[1, 1, 1, 1, 1, 1, 1, 1, 1, 1, 1, 1, 1, 1, 1, 1]
2025-12-04 14:05:35,557 - INFO - 📌 checkpoint 的欧氏长度:, []
2025-12-04 14:05:35,557 - INFO - 📌 checkpoint 的余弦长度:, []
2025-12-04 14:05:35,557 - INFO - 💾 最终显存峰值：%.2f MB % 12123.864547729492
2025-12-04 14:05:35,557 - INFO - 🕒 显存计划规划时间: 0.15 秒
2025-12-04 14:05:35,557 - INFO - Epoch 2 completed in 0.666169 seconds
2025-12-04 14:05:35,558 - INFO - torch.cuda.max_memory_reserved() : 6.361328125
2025-12-04 14:05:35,558 - INFO - torch.cuda.max_memory_allocated() : 1.848137378692627
2025-12-04 14:05:35,918 - INFO - Epoch 3 completed in 0.359964 seconds
2025-12-04 14:05:35,918 - INFO - 
====================== [第1个 Epoch 收集统计数据] ======================
2025-12-04 14:05:35,919 - INFO - 
🔍 EUCLIDEAN modules:
2025-12-04 14:05:35,919 - INFO - [Shapelet 110] forward_avg=0.017324s over 2 calls | peak=490.75MB | final=0.00MB
2025-12-04 14:05:35,919 - INFO - [Shapelet 220] forward_avg=0.008081s over 2 calls | peak=866.51MB | final=0.00MB
2025-12-04 14:05:35,919 - INFO - [Shapelet 331] forward_avg=0.013149s over 2 calls | peak=1138.65MB | final=0.00MB
2025-12-04 14:05:35,919 - INFO - [Shapelet 441] forward_avg=0.016846s over 2 calls | peak=1302.38MB | final=0.00MB
2025-12-04 14:05:35,919 - INFO - [Shapelet 552] forward_avg=0.019701s over 2 calls | peak=1358.17MB | final=0.00MB
2025-12-04 14:05:35,919 - INFO - [Shapelet 662] forward_avg=0.013615s over 2 calls | peak=1307.06MB | final=0.00MB
2025-12-04 14:05:35,919 - INFO - [Shapelet 773] forward_avg=0.010890s over 2 calls | peak=1148.84MB | final=0.00MB
2025-12-04 14:05:35,920 - INFO - [Shapelet 884] forward_avg=0.010800s over 2 calls | peak=881.12MB | final=0.00MB
2025-12-04 14:05:35,920 - INFO - 
🔍 COSINE modules:
2025-12-04 14:05:35,920 - INFO - [Shapelet 110] forward_avg=0.002001s over 2 calls | peak=322.44MB | final=0.00MB
2025-12-04 14:05:35,920 - INFO - [Shapelet 220] forward_avg=0.002696s over 2 calls | peak=572.35MB | final=0.00MB
2025-12-04 14:05:35,920 - INFO - [Shapelet 331] forward_avg=0.004405s over 2 calls | peak=752.90MB | final=0.00MB
2025-12-04 14:05:35,920 - INFO - [Shapelet 441] forward_avg=0.008142s over 2 calls | peak=860.97MB | final=0.00MB
2025-12-04 14:05:35,920 - INFO - [Shapelet 552] forward_avg=0.006774s over 2 calls | peak=896.81MB | final=0.00MB
2025-12-04 14:05:35,920 - INFO - [Shapelet 662] forward_avg=0.003966s over 2 calls | peak=861.77MB | final=0.00MB
2025-12-04 14:05:35,920 - INFO - [Shapelet 773] forward_avg=0.003572s over 2 calls | peak=755.55MB | final=0.00MB
2025-12-04 14:05:35,920 - INFO - [Shapelet 884] forward_avg=0.002788s over 2 calls | peak=575.80MB | final=0.00MB
2025-12-04 14:05:35,921 - INFO - 
🔍 CROSS modules:
2025-12-04 14:05:35,921 - INFO - [Shapelet 110] forward_avg=0.000348s over 2 calls
2025-12-04 14:05:35,921 - INFO - [Shapelet 220] forward_avg=0.000431s over 2 calls
2025-12-04 14:05:35,921 - INFO - [Shapelet 331] forward_avg=0.000522s over 2 calls
2025-12-04 14:05:35,921 - INFO - [Shapelet 441] forward_avg=0.000650s over 2 calls
2025-12-04 14:05:35,921 - INFO - [Shapelet 552] forward_avg=0.000543s over 2 calls
2025-12-04 14:05:35,921 - INFO - [Shapelet 662] forward_avg=0.000499s over 2 calls
2025-12-04 14:05:35,921 - INFO - [Shapelet 773] forward_avg=0.000545s over 2 calls
2025-12-04 14:05:35,921 - INFO - [Shapelet 884] forward_avg=0.000492s over 2 calls
2025-12-04 14:05:35,922 - INFO - 
💾 模型第一次反向传播阶段的显存峰值（所有模块中的最大值）: 9206.07 MB
2025-12-04 14:05:35,922 - INFO - 
💾 模型初始显存: 5.74 MB
2025-12-04 14:05:35,922 - INFO - =======================================================================

2025-12-04 14:05:35,922 - INFO - torch.cuda.max_memory_reserved() : 12.81640625
2025-12-04 14:05:35,923 - INFO - torch.cuda.max_memory_allocated() : 11.587062358856201
2025-12-04 14:05:36,280 - INFO - Epoch 4 completed in 0.356146 seconds
2025-12-04 14:05:36,281 - INFO - torch.cuda.max_memory_reserved() : 12.81640625
2025-12-04 14:05:36,281 - INFO - torch.cuda.max_memory_allocated() : 11.588426113128662
2025-12-04 14:05:36,644 - INFO - Epoch 5 completed in 0.361188 seconds
2025-12-04 14:05:36,644 - INFO - torch.cuda.max_memory_reserved() : 12.81640625
2025-12-04 14:05:36,645 - INFO - torch.cuda.max_memory_allocated() : 11.588426113128662
2025-12-04 14:05:37,000 - INFO - Epoch 6 completed in 0.353761 seconds
2025-12-04 14:05:37,000 - INFO - torch.cuda.max_memory_reserved() : 12.81640625
2025-12-04 14:05:37,000 - INFO - torch.cuda.max_memory_allocated() : 11.588426113128662
2025-12-04 14:05:37,363 - INFO - Epoch 7 completed in 0.362498 seconds
2025-12-04 14:05:37,364 - INFO - torch.cuda.max_memory_reserved() : 12.81640625
2025-12-04 14:05:37,365 - INFO - torch.cuda.max_memory_allocated() : 11.588426113128662
2025-12-04 14:05:37,730 - INFO - Epoch 8 completed in 0.364303 seconds
2025-12-04 14:05:37,732 - INFO - torch.cuda.max_memory_reserved() : 12.81640625
2025-12-04 14:05:37,733 - INFO - torch.cuda.max_memory_allocated() : 11.588426113128662
2025-12-04 14:05:38,083 - INFO - Epoch 9 completed in 0.349311 seconds
2025-12-04 14:05:38,084 - INFO - torch.cuda.max_memory_reserved() : 12.81640625
2025-12-04 14:05:38,084 - INFO - torch.cuda.max_memory_allocated() : 11.588426113128662
2025-12-04 14:05:38,446 - INFO - Epoch 10 completed in 0.361982 seconds
2025-12-04 14:05:38,860 - INFO - torch.cuda.max_memory_reserved() : 12.81640625
2025-12-04 14:05:38,861 - INFO - torch.cuda.max_memory_allocated() : 11.588426113128662
2025-12-04 14:05:38,861 - INFO - !!!采用策略后的几个epoch 平均时间:0.35864415764808655
2025-12-04 14:05:38,861 - INFO - 



